/*********************************************
 * OPL 12.6.0.0 Data
 * Author: Adrian Rodriguez Bazaga, Pau Rodriguez Esmerats
 * Creation Date: 21/11/2017 at 20:50:29
 *********************************************/

nNurses=104;
maxConsec=2;
maxPresence=7;
maxHours=5;
minHours=1;
demand= [29 29 39 38 29 39 38 30 26 10 3 1 3 2 5 1 3 1 2 1 24 40 18 37  ];
